&CONTROL
   calculation      = 'scf'
   verbosity        = 'high'
   tstress          = .true.
   tprnfor          = .true.
   outdir           = './out'
   prefix           = 'CuSurface111_scf_e50_r600_k222'
   etot_conv_thr    = 4e-05
   forc_conv_thr    = 0.0001
   pseudo_dir       = '/work/scratch/ucaqhaj/pp/upf'
   disk_io          = 'none'
/
&SYSTEM
   ibrav            = 0
   ntyp             = 1
   ecutwfc          = 50
   ecutrho          = 600
   nosym            = .false.
   occupations      = 'smearing'
   degauss          = 0.02
   smearing         = 'gaussian'
   nat              = 32
/
&ELECTRONS
   electron_maxstep = 1000
   conv_thr         = 8e-10
   mixing_beta      = 0.3
/
&IONS
/
&CELL
/
ATOMIC_SPECIES
Cu 63.546 Cu.paw.z_11.ld1.psl.v1.0.0-low.upf

K_POINTS automatic
2 2 2 0 0 0

CELL_PARAMETERS angstrom
5.06288455329568 0.00000000000000 0.00000000000000
0.00000000000000 4.38458663958189 0.00000000000000
0.00000000000000 0.00000000000000 16.62839774589202

ATOMIC_POSITIONS angstrom
Cu 0.0000000000 1.4615288799 1.0800000000
Cu 2.5314422766 1.4615288799 1.0800000000
Cu 1.2657211383 3.6538221997 1.0800000000
Cu 3.7971634150 3.6538221997 1.0800000000
Cu 0.0000000000 0.0000000000 3.1469139637
Cu 2.5314422766 0.0000000000 3.1469139637
Cu 1.2657211383 2.1922933198 3.1469139637
Cu 3.7971634150 2.1922933198 3.1469139637
Cu 1.2657211383 0.7307644399 5.2138279274
Cu 3.7971634150 0.7307644399 5.2138279274
Cu 0.0000000000 2.9230577597 5.2138279274
Cu 2.5314422766 2.9230577597 5.2138279274
Cu 0.0000000000 1.4615288799 7.2807418911
Cu 2.5314422766 1.4615288799 7.2807418911
Cu 1.2657211383 3.6538221997 7.2807418911
Cu 3.7971634150 3.6538221997 7.2807418911
Cu 0.0000000000 0.00000000000000 9.3476558548
Cu 2.5314422766 0.00000000000000 9.3476558548
Cu 1.2657211383 2.1922933198 9.3476558548
Cu 3.7971634150 2.1922933198 9.3476558548
Cu 1.2657211383 0.7307644399 11.4145698185
Cu 3.7971634150 0.7307644399 11.4145698185
Cu 0.0000000000 2.9230577597 11.4145698185
Cu 2.5314422766 2.9230577597 11.4145698185
Cu 0.0000000000 1.4615288799 13.4814837822
Cu 2.5314422766 1.4615288799 13.4814837822
Cu 1.2657211383 3.6538221997 13.4814837822
Cu 3.7971634150 3.6538221997 13.4814837822
Cu 0.00000000000000 0.00000000000000 15.5483977459
Cu 2.5314422766 0.00000000000000 15.5483977459
Cu 1.2657211383 2.1922933198 15.5483977459
Cu 3.7971634150 2.1922933198 15.5483977459
